&CONTROL
   calculation      = 'relax'
   restart_mode     = 'from_scratch'
   prefix           = 'tutorial'
   pseudo_dir       = '/home/valmzztt/Intermetallic_alloys/pseudos'
/
&SYSTEM
   ecutwfc          = 40.424222147
   occupations      = 'smearing'
   degauss          = 0.0146997171
   ntyp             = 3
   nat              = 8
   ibrav            = 0
/
&ELECTRONS
/
&IONS
/
&CELL
/

ATOMIC_SPECIES
Mn 54.938044 Mn.pbesol-spn-rrkjus_psl.0.3.1.UPF
Ni 58.6934 Ni.pbesol-spn-rrkjus_psl.1.0.0.UPF
As 74.921595 As.pbesol-n-rrkjus_psl.1.0.0.UPF

K_POINTS automatic
1 1 1  0 0 0

CELL_PARAMETERS angstrom
1.82290202500000 3.15735892452019 0.00000000000000
-3.64580405000000 6.31471784904038 0.00000000000000
0.00000000000000 0.00000000000000 5.04506600000000

ATOMIC_POSITIONS angstrom
Mn -1.8229020250 3.1573589245 0.0000000000 
Ni -1.8229020250 3.1573589245 2.5225330000 
As -1.8229020432 5.2622648847 1.2612665000 
As -1.8229020068 7.3671708134 3.7837995000 
Mn 0.0000000000 0.0000000000 0.0000000000 
Ni 0.0000000000 0.0000000000 2.5225330000 
As -0.0000000182 2.1049059602 1.2612665000 
As 0.0000000182 4.2098118888 3.7837995000 

