&CONTROL
   calculation      = 'relax'
   restart_mode     = 'from_scratch'
   prefix           = 'tutorial'
   pseudo_dir       = '/home/valmzztt/Intermetallic_alloys/pseudos'
/
&SYSTEM
   ecutwfc          = 40.424222147
   occupations      = 'smearing'
   degauss          = 0.0146997171
   ntyp             = 3
   nat              = 8
   ibrav            = 0
/
&ELECTRONS
/
&IONS
/
&CELL
/

ATOMIC_SPECIES
Ni 58.6934 Ni.pbesol-spn-rrkjus_psl.1.0.0.UPF
Mn 54.938044 Mn.pbesol-spn-rrkjus_psl.0.3.1.UPF
As 74.921595 As.pbesol-n-rrkjus_psl.1.0.0.UPF

K_POINTS automatic
1 1 1  0 0 0

CELL_PARAMETERS angstrom
3.64580405000000 0.00000000000000 5.04506600000000
-1.82290202500000 3.15735892452019 0.00000000000000
0.00000000000000 0.00000000000000 10.09013200000000

ATOMIC_POSITIONS angstrom
Ni 0.0000000000 0.0000000000 0.0000000000 
Mn 0.0000000000 0.0000000000 2.5225330000 
Mn 0.0000000000 0.0000000000 5.0450660000 
Mn 0.0000000000 0.0000000000 7.5675990000 
As -0.0000000182 2.1049059602 6.3063325000 
As -0.0000000182 2.1049059602 11.3513985000 
As 1.8229020432 1.0524529643 3.7837995000 
As 1.8229020432 1.0524529643 8.8288655000 

