&CONTROL
   calculation      = 'relax'
   restart_mode     = 'from_scratch'
   prefix           = 'tutorial'
   pseudo_dir       = '/home/valmzztt/Intermetallic_alloys/pseudos'
/
&SYSTEM
   ecutwfc          = 40.424222147
   occupations      = 'smearing'
   degauss          = 0.0146997171
   ntyp             = 3
   nat              = 16
   ibrav            = 0
/
&ELECTRONS
/
&IONS
/
&CELL
/

ATOMIC_SPECIES
Mn 54.938044 Mn.pbesol-spn-rrkjus_psl.0.3.1.UPF
As 74.921595 As.pbesol-n-rrkjus_psl.1.0.0.UPF
Ni 58.6934 Ni.pbesol-spn-rrkjus_psl.1.0.0.UPF

K_POINTS automatic
1 1 1  0 0 0

CELL_PARAMETERS angstrom
1.82290202500000 3.15735892452019 0.00000000000000
-7.29160810000000 12.62943569808077 10.09013200000000
0.00000000000000 0.00000000000000 5.04506600000000

ATOMIC_POSITIONS angstrom
Mn -5.4687060750 9.4720767736 7.5675990000 
Mn -5.4687060750 9.4720767736 10.0901320000 
As -5.4687060932 11.5769827338 11.3513985000 
As -5.4687060568 13.6818886624 13.8739315000 
Mn -3.6458040500 6.3147178490 5.0450660000 
Ni -3.6458040500 6.3147178490 7.5675990000 
As -3.6458040682 8.4196238092 6.3063325000 
As -3.6458040318 10.5245297379 8.8288655000 
Ni -1.8229020250 3.1573589245 2.5225330000 
Mn -1.8229020250 3.1573589245 5.0450660000 
As -1.8229020432 5.2622648847 6.3063325000 
As -1.8229020068 7.3671708134 8.8288655000 
Mn 0.0000000000 0.0000000000 0.0000000000 
Mn 0.0000000000 0.0000000000 2.5225330000 
As -0.0000000182 2.1049059602 1.2612665000 
As 0.0000000182 4.2098118888 3.7837995000 

