&CONTROL
   calculation      = 'relax'
   restart_mode     = 'from_scratch'
   prefix           = 'tutorial'
   pseudo_dir       = '/home/valmzztt/Intermetallic_alloys/pseudos'
/
&SYSTEM
   ecutwfc          = 40.424222147
   occupations      = 'smearing'
   degauss          = 0.0146997171
   ntyp             = 3
   nat              = 32
   ibrav            = 0
/
&ELECTRONS
/
&IONS
/
&CELL
/

ATOMIC_SPECIES
Mn 54.938044 Mn.pbesol-spn-rrkjus_psl.0.3.1.UPF
Ni 58.6934 Ni.pbesol-spn-rrkjus_psl.1.0.0.UPF
As 74.921595 As.pbesol-n-rrkjus_psl.1.0.0.UPF

K_POINTS automatic
1 1 1  0 0 0

CELL_PARAMETERS angstrom
7.29160810000000 0.00000000000000 10.09013200000000
-3.64580405000000 6.31471784904038 0.00000000000000
0.00000000000000 0.00000000000000 10.09013200000000

ATOMIC_POSITIONS angstrom
Mn -1.8229020250 3.1573589245 0.0000000000 
Ni -1.8229020250 3.1573589245 2.5225330000 
Ni -1.8229020250 3.1573589245 5.0450660000 
Ni -1.8229020250 3.1573589245 7.5675990000 
As -1.8229020432 5.2622648847 6.3063325000 
As -1.8229020432 5.2622648847 11.3513985000 
Mn 0.0000000000 0.0000000000 0.0000000000 
Ni 0.0000000000 0.0000000000 2.5225330000 
Ni 0.0000000000 0.0000000000 5.0450660000 
Mn 0.0000000000 0.0000000000 7.5675990000 
As -0.0000000182 2.1049059602 6.3063325000 
As -0.0000000182 2.1049059602 11.3513985000 
As 0.0000000182 4.2098118888 3.7837995000 
As 0.0000000182 4.2098118888 8.8288655000 
As 1.8229020432 1.0524529643 3.7837995000 
As 1.8229020432 1.0524529643 8.8288655000 
Mn 1.8229020250 3.1573589245 5.0450660000 
Ni 1.8229020250 3.1573589245 7.5675990000 
Mn 1.8229020250 3.1573589245 10.0901320000 
Ni 1.8229020250 3.1573589245 12.6126650000 
As 1.8229020068 5.2622648847 11.3513985000 
As 1.8229020068 5.2622648847 16.3964645000 
Ni 3.6458040500 0.0000000000 5.0450660000 
Ni 3.6458040500 0.0000000000 7.5675990000 
Ni 3.6458040500 0.0000000000 10.0901320000 
Mn 3.6458040500 0.0000000000 12.6126650000 
As 3.6458040318 2.1049059602 11.3513985000 
As 3.6458040318 2.1049059602 16.3964645000 
As 3.6458040682 4.2098118888 8.8288655000 
As 3.6458040682 4.2098118888 13.8739315000 
As 5.4687060932 1.0524529643 8.8288655000 
As 5.4687060932 1.0524529643 13.8739315000 

