&CONTROL
   calculation      = 'relax'
   restart_mode     = 'from_scratch'
   prefix           = 'tutorial'
   pseudo_dir       = '/home/valmzztt/Intermetallic_alloys/pseudos'
/
&SYSTEM
   ecutwfc          = 40.424222147
   occupations      = 'smearing'
   degauss          = 0.0146997171
   ntyp             = 3
   nat              = 12
   ibrav            = 0
/
&ELECTRONS
/
&IONS
/
&CELL
/

ATOMIC_SPECIES
Mn 54.938044 Mn.pbesol-spn-rrkjus_psl.0.3.1.UPF
As 74.921595 As.pbesol-n-rrkjus_psl.1.0.0.UPF
Ni 58.6934 Ni.pbesol-spn-rrkjus_psl.1.0.0.UPF

K_POINTS automatic
1 1 2  0 0 0

CELL_PARAMETERS angstrom
10.93741215000000 0.00000000000000 5.04506600000000
-1.82290202500000 3.15735892452019 5.04506600000000
0.00000000000000 0.00000000000000 5.04506600000000

ATOMIC_POSITIONS angstrom
Mn 0.0000000000 0.0000000000 0.0000000000 
Mn 0.0000000000 0.0000000000 2.5225330000 
As -0.0000000182 2.1049059602 6.3063325000 
As 1.8229020432 1.0524529643 3.7837995000 
Ni 3.6458040500 0.0000000000 2.5225330000 
Ni 3.6458040500 -0.0000000000 5.0450660000 
As 3.6458040318 2.1049059602 6.3063325000 
As 5.4687060932 1.0524529643 8.8288655000 
Mn 7.2916081000 0.0000000000 5.0450660000 
Mn 7.2916081000 0.0000000000 7.5675990000 
As 7.2916080818 2.1049059602 11.3513985000 
As 9.1145101432 1.0524529643 8.8288655000 

