&CONTROL
   calculation      = 'relax'
   restart_mode     = 'from_scratch'
   prefix           = 'tutorial'
   pseudo_dir       = '/home/valmzztt/Intermetallic_alloys/pseudos'
/
&SYSTEM
   ecutwfc          = 40.424222147
   occupations      = 'smearing'
   degauss          = 0.0146997171
   ntyp             = 3
   nat              = 20
   ibrav            = 0
/
&ELECTRONS
/
&IONS
/
&CELL
/

ATOMIC_SPECIES
Mn 54.938044 Mn.pbesol-spn-rrkjus_psl.0.3.1.UPF
Ni 58.6934 Ni.pbesol-spn-rrkjus_psl.1.0.0.UPF
As 74.921595 As.pbesol-n-rrkjus_psl.1.0.0.UPF

K_POINTS automatic
1 1 1  0 0 0

CELL_PARAMETERS angstrom
3.64580405000000 0.00000000000000 5.04506600000000
-1.82290202500000 3.15735892452019 0.00000000000000
0.00000000000000 0.00000000000000 25.22533000000000

ATOMIC_POSITIONS angstrom
Mn 0.0000000000 0.0000000000 0.0000000000 
Mn 0.0000000000 0.0000000000 2.5225330000 
Mn -0.0000000000 0.0000000000 5.0450660000 
Mn 0.0000000000 0.0000000000 7.5675990000 
Mn -0.0000000000 0.0000000000 10.0901320000 
Mn 0.0000000000 0.0000000000 12.6126650000 
Ni 0.0000000000 0.0000000000 15.1351980000 
Mn 0.0000000000 0.0000000000 17.6577310000 
Mn -0.0000000000 0.0000000000 20.1802640000 
Mn 0.0000000000 0.0000000000 22.7027970000 
As -0.0000000182 2.1049059602 6.3063325000 
As -0.0000000182 2.1049059602 11.3513985000 
As -0.0000000182 2.1049059602 16.3964645000 
As -0.0000000182 2.1049059602 21.4415305000 
As -0.0000000182 2.1049059602 26.4865965000 
As 1.8229020432 1.0524529643 3.7837995000 
As 1.8229020432 1.0524529643 8.8288655000 
As 1.8229020432 1.0524529643 13.8739315000 
As 1.8229020432 1.0524529643 18.9189975000 
As 1.8229020432 1.0524529643 23.9640635000 

